(declare-const |__tmp_383_0':146:170:177:230:533:1034| Int)
(declare-const __VERIFIER_assert__cond___7 Int)
(declare-const |main____CPAchecker_TMP_4':364:389:1012:1045| Int)
(declare-const __VERIFIER_assert__cond___3 Int)
(declare-const __VERIFIER_assert__cond___18 Int)
(declare-const havoc Int)
(declare-const |phi___tmp_383_0:405:516:1017| Int)
(declare-const |__VERIFIER_assert__cond___8':368:384:1007:1040| Int)
(declare-const |phi___tmp_259_0:404:517:1018| Int)
(declare-const |main____CPAchecker_TMP_3':363:390:1013:1046| Int)
(declare-const __VERIFIER_assert__cond___15 Int)
(declare-const |havoc:28:64:341:391:1014:1047| Int)
(declare-const |phi___VERIFIER_assert__cond___16:395:526:1027| Int)
(declare-const |K:381:382:1005:1038| Int)
(declare-const __VERIFIER_assert__cond___8 Int)
(declare-const __VERIFIER_assert__cond___11 Int)
(declare-const |__VERIFIER_assert__cond___17':150:168:175:228:531:1032| Int)
(declare-const |phi___VERIFIER_assert__cond___17:394:527:1028| Int)
(declare-const |havoc:3:62:1016| Int)
(declare-const |K:165:166:173:226:529:1030| Int)
(declare-const |phi___VERIFIER_assert__cond:401:520:1021| Int)
(declare-const |phi___VERIFIER_assert__cond___12:398:523:1024| Int)
(declare-const |phi___VERIFIER_assert__cond___18:393:528:1029| Int)
(declare-const |phi_main__t:403:518:1019| Int)
(declare-const |phi_main____CPAchecker_TMP_0___0:397:524:1025| Int)
(declare-const __VERIFIER_assert__cond___4 Int)
(declare-const |main____CPAchecker_TMP_0___0':149:172:179:232:535:1036| Int)
(declare-const main____CPAchecker_TMP_4 Int)
(declare-const |main____CPAchecker_TMP_0':148:169:176:229:532:1033| Int)
(declare-const __VERIFIER_assert__cond___0 Int)
(declare-const |havoc:35:66:816:1015:1048| Int)
(declare-const __VERIFIER_assert__cond___12 Int)
(declare-const __VERIFIER_assert__cond Int)
(declare-const |phi___VERIFIER_assert__cond___0:400:521:1022| Int)
(declare-const main____CPAchecker_TMP_3 Int)
(declare-const main____CPAchecker_TMP_6 Int)
(declare-const |main____CPAchecker_TMP_6':369:386:1009:1042| Int)
(declare-const |havoc:9:63:145:225:233:536:1037| Int)
(declare-const __tmp_383_0 Int)
(declare-const |__VERIFIER_assert__cond___18':151:171:178:231:534:1035| Int)
(declare-const |phi_main____CPAchecker_TMP_0:402:519:1020| Int)
(declare-const |phi___VERIFIER_assert__cond___11:399:522:1023| Int)
(declare-const |__VERIFIER_assert__cond___4':366:387:1010:1043| Int)
(declare-const |main__t':147:167:174:227:530:1031| Int)
(declare-const main____CPAchecker_TMP_0___0 Int)
(declare-const |main__t':147:385:1008:1041| Int)
(declare-const __VERIFIER_assert__cond___17 Int)
(declare-const |phi___VERIFIER_assert__cond___15:396:525:1026| Int)
(declare-const __VERIFIER_assert__cond___16 Int)
(declare-const |__VERIFIER_assert__cond___3':365:388:1011:1044| Int)
(declare-const |__VERIFIER_assert__cond___7':367:383:1006:1039| Int)
(assert (and (<= (+ (- havoc) 1) 0) (not (= (+ (- havoc) 1) 0))
               (or (and (not (= |havoc:3:62:1016| 0))
                          (not (= (ite (<= (+ (- havoc) 1) 0) 1 0) 0))
                          (= (+ (- |phi___tmp_383_0:405:516:1017|)
                                  __tmp_383_0) 0)
                          (= (+ (- |phi___tmp_259_0:404:517:1018|)
                                  |havoc:3:62:1016|) 0)
                          (= (- |phi_main__t:403:518:1019|) 0)
                          (= (+ (- |phi_main____CPAchecker_TMP_0:402:519:1020|)
                                  |havoc:3:62:1016|) 0)
                          (= (+ (- |phi___VERIFIER_assert__cond:401:520:1021|)
                                  1) 0)
                          (= (+ (- |phi___VERIFIER_assert__cond___0:400:521:1022|)
                                  (ite (<= (+ (- havoc) 1) 0) 1 0)) 0)
                          (= (+ (- |phi___VERIFIER_assert__cond___11:399:522:1023|)
                                  __VERIFIER_assert__cond___11) 0)
                          (= (+ (- |phi___VERIFIER_assert__cond___12:398:523:1024|)
                                  __VERIFIER_assert__cond___12) 0)
                          (= (+ (- |phi_main____CPAchecker_TMP_0___0:397:524:1025|)
                                  main____CPAchecker_TMP_0___0) 0)
                          (= (+ (- |phi___VERIFIER_assert__cond___15:396:525:1026|)
                                  __VERIFIER_assert__cond___15) 0)
                          (= (+ (- |phi___VERIFIER_assert__cond___16:395:526:1027|)
                                  __VERIFIER_assert__cond___16) 0)
                          (= (+ (- |phi___VERIFIER_assert__cond___17:394:527:1028|)
                                  __VERIFIER_assert__cond___17) 0)
                          (= (+ (- |phi___VERIFIER_assert__cond___18:393:528:1029|)
                                  __VERIFIER_assert__cond___18) 0))
                     (and (= |havoc:3:62:1016| 0)
                            (not (= (ite (<= (+ (- havoc) 1) 0) 1 0) 0))
                            (or (not (<= (- |K:165:166:173:226:529:1030|) 0))
                                  (= (+ |main__t':147:167:174:227:530:1031|
                                          (- |K:165:166:173:226:529:1030|)) 0))
                            (or (not (and (<= (- |K:165:166:173:226:529:1030|) 0)
                                            (<= |K:165:166:173:226:529:1030| 0)))
                                  (= (+ |__VERIFIER_assert__cond___17':150:168:175:228:531:1032|
                                          (- __VERIFIER_assert__cond___17)) 0))
                            (or (not (<= (+ (- |K:165:166:173:226:529:1030|)
                                              1) 0))
                                  (= (+ |__VERIFIER_assert__cond___17':150:168:175:228:531:1032|
                                          -1) 0))
                            (or (not (and (<= (- |K:165:166:173:226:529:1030|) 0)
                                            (<= |K:165:166:173:226:529:1030| 0)))
                                  (= (+ |main____CPAchecker_TMP_0':148:169:176:229:532:1033|
                                          (- |havoc:3:62:1016|)) 0))
                            (or (not (<= (+ (- |K:165:166:173:226:529:1030|)
                                              1) 0))
                                  (= |main____CPAchecker_TMP_0':148:169:176:229:532:1033| 0))
                            (or (not (and (<= (- |K:165:166:173:226:529:1030|) 0)
                                            (<= |K:165:166:173:226:529:1030| 0)))
                                  (= (+ |__tmp_383_0':146:170:177:230:533:1034|
                                          (- |havoc:3:62:1016|)) 0))
                            (or (not (<= (+ (- |K:165:166:173:226:529:1030|)
                                              1) 0))
                                  (= |__tmp_383_0':146:170:177:230:533:1034| 0))
                            (or (not (and (<= (- |K:165:166:173:226:529:1030|) 0)
                                            (<= |K:165:166:173:226:529:1030| 0)))
                                  (= (+ |__VERIFIER_assert__cond___18':151:171:178:231:534:1035|
                                          (- __VERIFIER_assert__cond___18)) 0))
                            (or (not (<= (+ (- |K:165:166:173:226:529:1030|)
                                              1) 0))
                                  (= (+ |__VERIFIER_assert__cond___18':151:171:178:231:534:1035|
                                          -1) 0))
                            (or (not (and (<= (- |K:165:166:173:226:529:1030|) 0)
                                            (<= |K:165:166:173:226:529:1030| 0)))
                                  (= (+ |main____CPAchecker_TMP_0___0':149:172:179:232:535:1036|
                                          (- main____CPAchecker_TMP_0___0)) 0))
                            (or (not (<= (+ (- |K:165:166:173:226:529:1030|)
                                              1) 0))
                                  (= |main____CPAchecker_TMP_0___0':149:172:179:232:535:1036| 0))
                            (or (and (= |K:165:166:173:226:529:1030| 0)
                                       (= (+ (- |__VERIFIER_assert__cond___18':151:171:178:231:534:1035|)
                                               __VERIFIER_assert__cond___18) 0)
                                       (= (+ (- |__VERIFIER_assert__cond___17':150:168:175:228:531:1032|)
                                               __VERIFIER_assert__cond___17) 0)
                                       (= (+ (- |main____CPAchecker_TMP_0___0':149:172:179:232:535:1036|)
                                               main____CPAchecker_TMP_0___0) 0)
                                       (= (+ (- |main____CPAchecker_TMP_0':148:169:176:229:532:1033|)
                                               |havoc:3:62:1016|) 0)
                                       (= (- |main__t':147:167:174:227:530:1031|) 0)
                                       (= (+ (- |__tmp_383_0':146:170:177:230:533:1034|)
                                               |havoc:3:62:1016|) 0))
                                  (and (<= (+ (- |K:165:166:173:226:529:1030|)
                                                1) 0) (= |havoc:3:62:1016| 0)
                                         (= |havoc:3:62:1016| 0)
                                         (<= (+ (- havoc) 3) 0)
                                         (= (+ |__VERIFIER_assert__cond___18':151:171:178:231:534:1035|
                                                 -1) 0)
                                         (= (+ |__VERIFIER_assert__cond___17':150:168:175:228:531:1032|
                                                 -1) 0)
                                         (= |main____CPAchecker_TMP_0':148:169:176:229:532:1033| 0)
                                         (= |main____CPAchecker_TMP_0___0':149:172:179:232:535:1036| 0)
                                         (= |__tmp_383_0':146:170:177:230:533:1034| 0)
                                         (<= (+ |main__t':147:167:174:227:530:1031|
                                                  (- havoc) 2) 0)
                                         (<= (+ (- |main__t':147:167:174:227:530:1031|)
                                                  1) 0)))
                            (<= (- |K:165:166:173:226:529:1030|) 0)
                            (= |__tmp_383_0':146:170:177:230:533:1034| 0)
                            (= |main____CPAchecker_TMP_0':148:169:176:229:532:1033| 0)
                            (<= (- |main__t':147:167:174:227:530:1031|) 0)
                            (< (+ (- havoc) 1) 0)
                            (= |__tmp_383_0':146:170:177:230:533:1034| 0)
                            (= |main____CPAchecker_TMP_0':148:169:176:229:532:1033| 0)
                            (not (= (+ |main__t':147:167:174:227:530:1031|
                                         (- havoc) 2) 0))
                            (not (= |havoc:9:63:145:225:233:536:1037| 0))
                            (not (= (ite (<= (+ (- |main__t':147:167:174:227:530:1031|)
                                                  -1) 0)
                                         1 0) 0))
                            (not (= (ite (<= (+ |main__t':147:167:174:227:530:1031|
                                                  (- havoc) 2) 0)
                                         1 0) 0))
                            (= (+ |__tmp_383_0':146:170:177:230:533:1034|
                                    (- |phi___tmp_383_0:405:516:1017|)) 0)
                            (= (+ |havoc:9:63:145:225:233:536:1037|
                                    (- |phi___tmp_259_0:404:517:1018|)) 0)
                            (= (+ |main__t':147:167:174:227:530:1031|
                                    (- |phi_main__t:403:518:1019|) 1) 0)
                            (= (+ |__tmp_383_0':146:170:177:230:533:1034|
                                    (- |phi_main____CPAchecker_TMP_0:402:519:1020|)) 0)
                            (= (+ __VERIFIER_assert__cond
                                    (- |phi___VERIFIER_assert__cond:401:520:1021|)) 0)
                            (= (+ __VERIFIER_assert__cond___0
                                    (- |phi___VERIFIER_assert__cond___0:400:521:1022|)) 0)
                            (= (+ (- |phi___VERIFIER_assert__cond___11:399:522:1023|)
                                    1) 0)
                            (= (+ (- |phi___VERIFIER_assert__cond___12:398:523:1024|)
                                    (ite (<= (+ (- havoc) 1) 0) 1 0)) 0)
                            (= (+ |havoc:9:63:145:225:233:536:1037|
                                    (- |phi_main____CPAchecker_TMP_0___0:397:524:1025|)) 0)
                            (= (+ (ite (<= (+ (- |main__t':147:167:174:227:530:1031|)
                                                -1) 0)
                                       1 0)
                                    (- |phi___VERIFIER_assert__cond___15:396:525:1026|)) 0)
                            (= (+ (ite (<= (+ |main__t':147:167:174:227:530:1031|
                                                (- havoc) 2) 0)
                                       1 0)
                                    (- |phi___VERIFIER_assert__cond___16:395:526:1027|)) 0)
                            (= (+ |__VERIFIER_assert__cond___17':150:168:175:228:531:1032|
                                    (- |phi___VERIFIER_assert__cond___17:394:527:1028|)) 0)
                            (= (+ |__VERIFIER_assert__cond___18':151:171:178:231:534:1035|
                                    (- |phi___VERIFIER_assert__cond___18:393:528:1029|)) 0)))
               (or (not (and (<= (- |K:381:382:1005:1038|) 0)
                               (<= |K:381:382:1005:1038| 0)))
                     (= (+ (- __VERIFIER_assert__cond___7)
                             |__VERIFIER_assert__cond___7':367:383:1006:1039|) 0))
               (or (not (<= (+ (- |K:381:382:1005:1038|) 1) 0))
                     (= (+ |__VERIFIER_assert__cond___7':367:383:1006:1039|
                             -1) 0))
               (or (not (and (<= (- |K:381:382:1005:1038|) 0)
                               (<= |K:381:382:1005:1038| 0)))
                     (= (+ (- __VERIFIER_assert__cond___8)
                             |__VERIFIER_assert__cond___8':368:384:1007:1040|) 0))
               (or (not (<= (+ (- |K:381:382:1005:1038|) 1) 0))
                     (= (+ |__VERIFIER_assert__cond___8':368:384:1007:1040|
                             -1) 0))
               (or (not (<= (- |K:381:382:1005:1038|) 0))
                     (<= (+ |main__t':147:385:1008:1041|
                              (* -2 |K:381:382:1005:1038|)
                              (- |phi_main__t:403:518:1019|) -1) 0))
               (or (not (<= (- |K:381:382:1005:1038|) 0))
                     (<= (+ |main__t':147:385:1008:1041|
                              (* 2 |K:381:382:1005:1038|)
                              (- |phi_main__t:403:518:1019|)
                              (- (* |K:381:382:1005:1038| havoc)) -1) 0))
               (or (not (<= (- |K:381:382:1005:1038|) 0))
                     (<= (+ (- |main__t':147:385:1008:1041|)
                              |K:381:382:1005:1038|
                              |phi_main__t:403:518:1019| 1) 0))
               (or (and (= |K:381:382:1005:1038| 0)
                          (= (+ (- |main____CPAchecker_TMP_6':369:386:1009:1042|)
                                  main____CPAchecker_TMP_6) 0)
                          (= (+ __VERIFIER_assert__cond___8
                                  (- |__VERIFIER_assert__cond___8':368:384:1007:1040|)) 0)
                          (= (+ __VERIFIER_assert__cond___7
                                  (- |__VERIFIER_assert__cond___7':367:383:1006:1039|)) 0)
                          (= (+ (- |__VERIFIER_assert__cond___4':366:387:1010:1043|)
                                  __VERIFIER_assert__cond___4) 0)
                          (= (+ (- |__VERIFIER_assert__cond___3':365:388:1011:1044|)
                                  __VERIFIER_assert__cond___3) 0)
                          (= (+ (- |main____CPAchecker_TMP_4':364:389:1012:1045|)
                                  main____CPAchecker_TMP_4) 0)
                          (= (+ (- |main____CPAchecker_TMP_3':363:390:1013:1046|)
                                  main____CPAchecker_TMP_3) 0)
                          (= (+ (- |main__t':147:385:1008:1041|)
                                  |phi_main__t:403:518:1019| 1) 0))
                     (and (<= (+ (- |K:381:382:1005:1038|) 1) 0)
                            (<= (+ |phi_main__t:403:518:1019| (- havoc) 3) 0)
                            (<= (- |phi_main__t:403:518:1019|) 0)
                            (= (+ |__VERIFIER_assert__cond___8':368:384:1007:1040|
                                    -1) 0)
                            (= (+ |__VERIFIER_assert__cond___7':367:383:1006:1039|
                                    -1) 0)
                            (<= (+ |main__t':147:385:1008:1041| (- havoc) 1) 0)
                            (<= (+ (- |main__t':147:385:1008:1041|) 2) 0)))
               (<= (- |K:381:382:1005:1038|) 0)
               (< (- |main__t':147:385:1008:1041|) 0) (< (+ (- havoc) 1) 0)
               (not (= (+ |main__t':147:385:1008:1041| (- havoc) 1) 0))
               (not (= |havoc:28:64:341:391:1014:1047| 0))
               (not (= |havoc:35:66:816:1015:1048| 0))
               (not (= (ite (<= (- |main__t':147:385:1008:1041|) 0) 1 0) 0))
               (= (ite (<= (+ |main__t':147:385:1008:1041| (- havoc) 1) 0) 1
                       0) 0)))
(check-sat)
